
Log started (V12.8.0.0) Thu Aug 30 11:28:38 2018

New value for time limit in seconds: 500
CPXPARAM_TimeLimit                               500
CPXPARAM_Emphasis_Numerical                      1
CPXPARAM_Parallel                                -1
CPXPARAM_Benders_Strategy                        3
CPXPARAM_MIP_Tolerances_Integrality              9.9999999999999995e-08
CPXPARAM_MIP_Pool_AbsGap                         0
Tried aggregator 4 times.
MIP Presolve eliminated 10058 rows and 4598 columns.
Aggregator did 1845 substitutions.
Reduced MIP has 4281 rows, 4598 columns, and 17047 nonzeros.
Reduced MIP has 22 binaries, 0 generals, 0 SOSs, and 0 indicators.
Presolve time = 0.02 sec. (23.53 ticks)
Found incumbent of value -65.028944 after 0.05 sec. (43.69 ticks)
Tried aggregator 1 time.
Reduced MIP has 4281 rows, 4598 columns, and 17047 nonzeros.
Reduced MIP has 22 binaries, 0 generals, 0 SOSs, and 0 indicators.
Presolve time = 0.00 sec. (4.59 ticks)

        Nodes                                         Cuts/
   Node  Left     Objective  IInf  Best Integer    Best Bound    ItCnt     Gap

      0     0        0.0000                       Benders: 10        0         
      0     0        0.0000                        Benders: 4        1         
      0     0        0.0000                        Benders: 4        3         
      0     0        0.0000                        Benders: 4        4         
      0     0        0.0000                        Benders: 4        5         
      0     0        0.0000                       Benders: 10        6         
      0     0        0.0000                        Benders: 1        8         
      0     0        0.0000                        Benders: 1       10         
      0     0        0.0000                        Benders: 1       11         
      0     0        0.0000                        Benders: 1       13         
      0     0        0.0000                        Benders: 1       15         
      0     0        0.0000                        Benders: 1       16         
      0     0        0.0000                            0.0000       17         
Tried aggregator 1 time.
MIP Presolve eliminated 1 rows and 0 columns.
MIP Presolve modified 584 coefficients.
Reduced MIP has 42 rows, 32 columns, and 387 nonzeros.
Reduced MIP has 22 binaries, 0 generals, 0 SOSs, and 0 indicators.
Presolve time = 0.00 sec. (0.12 ticks)
Probing time = 0.00 sec. (0.02 ticks)
Tried aggregator 1 time.
Reduced MIP has 42 rows, 32 columns, and 387 nonzeros.
Reduced MIP has 22 binaries, 0 generals, 0 SOSs, and 0 indicators.
Presolve time = 0.00 sec. (0.10 ticks)
Probing time = 0.00 sec. (0.02 ticks)
MIP emphasis: balance optimality and feasibility.
MIP search method: dynamic search.
Parallel mode: opportunistic, using up to 8 threads.
Root relaxation solution time = 0.00 sec. (0.09 ticks)
*     0+    0                          -65.0289       -0.0000           100.00%
      0     0        0.0000     6      -65.0289       -0.0000       36  100.00%
*     0+    0                          -56.7331       -0.0000           100.00%
      0     0        0.0000     6      -56.7331       Cuts: 5       37  100.00%
      0     0        0.0000    10      -56.7331       Cuts: 5       39  100.00%
      0     0        0.0000    12      -56.7331    Benders: 1       47  100.00%

Repeating presolve.
Tried aggregator 1 time.
Reduced MIP has 42 rows, 32 columns, and 387 nonzeros.
Reduced MIP has 22 binaries, 0 generals, 0 SOSs, and 0 indicators.
Presolve time = 0.00 sec. (0.10 ticks)
Probing time = 0.00 sec. (0.02 ticks)
Tried aggregator 1 time.
Reduced MIP has 42 rows, 32 columns, and 387 nonzeros.
Reduced MIP has 22 binaries, 0 generals, 0 SOSs, and 0 indicators.
Presolve time = 0.00 sec. (0.10 ticks)
Represolve time = 0.00 sec. (0.98 ticks)
Probing time = 0.00 sec. (0.02 ticks)
MIP emphasis: balance optimality and feasibility.
MIP search method: dynamic search.
Parallel mode: opportunistic, using up to 8 threads.
Root relaxation solution time = 0.00 sec. (0.31 ticks)
*     0+    0                          -56.7331       -0.0000           100.00%
      0     0        0.0000     8      -56.7331       -0.0000       92  100.00%
      0     0        0.0000     8      -56.7331       Cuts: 3       94  100.00%
      0     0        0.0000     6      -56.7331       Cuts: 5      101  100.00%
      0     2        0.0000     8      -56.7331      Cuts: 70      101  100.00%
Elapsed time = 0.75 sec. (638.59 ticks, tree = 0.01 MB, solutions = 1)
*   140+    4                          -49.1028       -5.1427            89.53%
    195    68      -55.4467     3      -49.1028       -5.1427     1214   89.53%
*   403+   69                          -48.9965      -11.2000            77.14%
*   550   102      integral     0      -39.7769      -21.9334     2935   44.86%
    566   133      -29.5382     6      -39.7769      -22.3168     4045   43.89%
   1304    70        cutoff            -39.7743      -36.3995    11106    8.48%

Benders cuts applied:  1015
Flow cuts applied:  6
Mixed integer rounding cuts applied:  2
Gomory fractional cuts applied:  4

Root node processing (before b&c):
  Real time             =    0.66 sec. (638.09 ticks)
Parallel b&c, 8 threads:
  Real time             =    1.10 sec. (763.20 ticks)
  Sync time (average)   =    0.06 sec.
  Wait time (average)   =    0.01 sec.
                          ------------
Total (root+branch&cut) =    1.76 sec. (1401.28 ticks)

Solution pool: 1 solution saved.

MIP - Integer optimal solution:  Objective = -3.9774320855e+01
Solution time =    1.76 sec.  Iterations = 11875  Nodes = 1422 (1)
Deterministic time = 1402.13 ticks  (795.71 ticks/sec)


Solution pool written to file 'lsgcp_a5_b0_n1.sol'.
Current MIP best bound = -3.9774320855e+01 (gap = -0, 0.00%)
